21 20 19 18 17 16 141 142 143 144 145 44 43 42 41 40 39 38 161 162 163 164 165 62 61 60 59 58 57 160 159 158 157 156 32 31 30 29 28 132 133 134 135 33 34 35 36 37 140 139 138 137 136 15 14 13 12 11 10 9 8 131 7 6 5 4 3 2 1 126 127 128 129 130 27 26 151 152 153 154 155 51 176 177 52 53 54 55 56 181 182 183 184 185 82 81 80 79 78 77 178 179 180 76 201 202 203 204 205 101 102 103 104 105 106 107 108 109 110 210 209 208 207 206 83 84 85 86 87 88 211 212 213 214 215 111 112 113 114 115 116 117 118 119 220 120 121 122 123 124 125 225 224 223 222 221 100 99 200 199 198 197 196 75 175 174 74 73 72 71 70 69 191 192 193 194 195 95 96 97 98 219 218 217 216 94 93 92 91 90 89 190 189 188 187 186 63 64 65 66 67 68 170 169 168 167 166 45 46 47 48 49 173 172 171 50 150 149 148 147 146 25 24 23 22

Best FO
126645.93

Best RPD
0.0

Time to best FO
8.84

Total Time
46.95